// --------------------------------------------------------------------------
// Licensed Materials - Property of IBM
//
// 5725-A06 5725-A29 5724-Y48 5724-Y49 5724-Y54 5724-Y55
// Copyright IBM Corporation 1998, 2011. All Rights Reserved.
//
// Note to U.S. Government Users Restricted Rights:
// Use, duplication or disclosure restricted by GSA ADP Schedule
// Contract with IBM Corp.
// --------------------------------------------------------------------------

Dep = [
   315
320
320
330
370
372
380
380
385
385
390
392
430
430
435
440
445
450
450
450
460
465
465
470
485
485
495
500
510
510
510
525
525
530
535
540
542
543
555
560
565
568
570
570
580
590
595
595
600
600
615
620
620
623
625
625
640
645
650
650
653
670
670
675
678
680
680
690
693
705
710
710
713
715
725
735
740
740
745
750
753
760
770
770
780
782
785
800
805
805
808
810
810
825
830
831
840
840
850
850
865
870
870
870
880
880
885
885
895
900
900
910
915
925
930
935
938
940
955
960
960
960
960
972
975
990
995
995
995
997
1020
1020
1025
1025
1028
1040
1050
1052
1055
1055
1055
1060
1073
1080
1080
1100
1110
1110
1113
1115
1120
1120
1125
1140
1144
1150
1155
1170
1175
1180
1200
1205
1205
1205
1210
1235
1260
1260
1440
1440
1440
1440
1440
      ];
/*Dep = #[
   HNL_OGG_302:   315,
   HNL_ITO_40:   320,
   HNL_KOA_80:   320,
   HNL_LIH_201:   330,
   HNL_LIH_205:   370,
   HNL_KOA_82:   380,
   HNL_OGG_110:   380,
   HNL_ITO_404:   385,
   HNL_LIH_33:   430,
   HNL_OGG_60:   435,
   HNL_ITO_42:   450,
   HNL_LIH_211:   450,
   HNL_OGG_272:   450,
   HNL_KOA_36:   465,
   HNL_OGG_204:   465,
   HNL_ITO_108:   470,
   HNL_OGG_266:   485,
   HNL_ITO_44:   500,
   HNL_LIH_85:   510,
   HNL_LIH_31:   535,
   HNL_OGG_34:   540,
   HNL_KOA_288:   555,
   HNL_LIH_105:   560,
   HNL_OGG_206:   565,
   HNL_OGG_70:   595,
   HNL_LIH_275:   600,
   HNL_KOA_104:   615,
   HNL_OGG_208:   625,
   HNL_ITO_246:   640,
   HNL_LIH_103:   645,
   HNL_OGG_72:   650,
   HNL_KOA_90:   650,
   HNL_KOA_216:   675,
   HNL_LIH_207:   680,
   HNL_OGG_28:   690,
   HNL_LIH_73:   710,
   HNL_OGG_262:   725,
   HNL_ITO_290:   735,
   HNL_LIH_109:   745,
   HNL_KOA_88:   760,
   HNL_LIH_71:   770,
   HNL_OGG_212:   780,
   HNL_KOA_92:   785,
   HNL_ITO_248:   805,
   HNL_OGG_106:   810,
   HNL_LIH_111:   810,
   HNL_KOA_252:   825,
   HNL_LIH_263:   840,
   HNL_OGG_244:   850,
   HNL_KOA_270:   865,
   HNL_OGG_26:   880,
   HNL_ITO_294:   885,
   HNL_LIH_107:   900,
   HNL_OGG_112:   915,
   HNL_KOA_284:   925,
   HNL_OGG_114:   935,
   HNL_ITO_74:   955,
   HNL_OGG_102:   960,
   HNL_LIH_249:   960,
   HNL_ITO_68:   975,
   HNL_KOA_96:   995,
   HNL_LIH_271:   995,
   HNL_OGG_286:   995,
   HNL_OGG_224:   1020,
   HNL_ITO_46:   1040,
   HNL_LIH_115:   1055,
   HNL_KOA_202:   1055,
   HNL_OGG_66:   1080,
   HNL_LIH_75:   1100,
   HNL_KOA_282:   1110,
   HNL_ITO_48:   1125,
   HNL_LIH_65:   1144,
   HNL_OGG_228:   1150,
   HNL_KOA_86:   1170,
   HNL_LIH_67:   1205,
   HNL_OGG_78:   1205,
   HNL_HNL_0:   1440,
   ITO_HNL_41:   392,
   ITO_HNL_31:   460,
   ITO_OGG_91:   525,
   ITO_HNL_43:   542,
   ITO_HNL_45:   568,
   ITO_KOA_29:   570,
   ITO_HNL_247:   713,
   ITO_HNL_291:   808,
   ITO_HNL_249:   880,
   ITO_HNL_295:   960,
   ITO_HNL_75:   1028,
   ITO_HNL_77:   1050,
   ITO_HNL_65:   1073,
   ITO_HNL_47:   1110,
   ITO_OGG_297:   1120,
   ITO_HNL_49:   1200,
   ITO_ITO_0:   1440,
   KOA_HNL_81:   385,
   KOA_HNL_85:   445,
   KOA_HNL_37:   530,
   KOA_HNL_103:   580,
   KOA_HNL_231:   620,
   KOA_OGG_29:   625,
   KOA_HNL_109:   680,
   KOA_HNL_95:   715,
   KOA_HNL_83:   740,
   KOA_HNL_219:   800,
   KOA_OGG_217:   831,
   KOA_HNL_235:   850,
   KOA_HNL_255:   895,
   KOA_HNL_271:   930,
   KOA_HNL_283:   990,
   KOA_ITO_112:   1025,
   KOA_OGG_233:   1060,
   KOA_HNL_279:   1120,
   KOA_HNL_289:   1175,
   KOA_HNL_87:   1235,
   KOA_KOA_0:   1440,
   LIH_HNL_272:   390,
   LIH_HNL_266:   430,
   LIH_HNL_34:   485,
   LIH_HNL_206:   510,
   LIH_HNL_208:   570,
   LIH_HNL_90:   595,
   LIH_HNL_216:   620,
   LIH_OGG_30:   670,
   LIH_HNL_262:   670,
   LIH_HNL_88:   705,
   LIH_HNL_248:   740,
   LIH_HNL_252:   770,
   LIH_OGG_118:   805,
   LIH_HNL_294:   830,
   LIH_HNL_114:   870,
   LIH_HNL_74:   900,
   LIH_HNL_96:   940,
   LIH_HNL_224:   960,
   LIH_HNL_66:   1025,
   LIH_HNL_282:   1055,
   LIH_HNL_86:   1115,
   LIH_HNL_78:   1155,
   LIH_HNL_232:   1205,
   LIH_HNL_230:   1260,
   LIH_LIH_0:   1440,
   OGG_HNL_33:   372,
   OGG_HNL_101:   440,
   OGG_HNL_273:   495,
   OGG_ITO_272:   510,
   OGG_KOA_204:   525,
   OGG_HNL_275:   543,
   OGG_HNL_91:   590,
   OGG_LIH_61:   600,
   OGG_HNL_207:   623,
   OGG_HNL_73:   653,
   OGG_HNL_29:   678,
   OGG_HNL_209:   693,
   OGG_HNL_71:   710,
   OGG_KOA_30:   750,
   OGG_HNL_111:   753,
   OGG_HNL_263:   782,
   OGG_HNL_107:   840,
   OGG_HNL_69:   870,
   OGG_LIH_213:   870,
   OGG_HNL_217:   885,
   OGG_HNL_215:   910,
   OGG_HNL_93:   938,
   OGG_KOA_112:   972,
   OGG_HNL_115:   997,
   OGG_HNL_257:   1020,
   OGG_ITO_286:   1052,
   OGG_HNL_225:   1080,
   OGG_HNL_233:   1113,
   OGG_HNL_67:   1140,
   OGG_HNL_297:   1180,
   OGG_HNL_229:   1210,
   OGG_HNL_79:   1260,
   OGG_OGG_0:   1440
]#;
*/
